100
128
19
2
16
1
3
15
18
50
21
3
5
21
10
3
1
4
6
24
30
15
2
11
34
2
38
1
11
11
15
3
11
5
40
4
17
16
8
2
13
3
28
5
37
23
37
14
15
19
15
14
6
3
2
18
15
56
45
57
14
21
43
57
35
49
52
56
25
44
2
4
49
3
1
7
53
36
31
37
64
15
45
14
44
63
4
49
11
52
1
37
2
64
19
39
64
28
59
16
63
6